c CNF file corresponding to a (partial) station packing problem.
p cnf 6852 213
1 2 3 4 5 6 7 8 9 10 11 12 13 14 0
-1 -2 0
-1 -3 0
-1 -4 0
-1 -5 0
-1 -6 0
-1 -7 0
-1 -8 0
-1 -9 0
-1 -10 0
-1 -11 0
-1 -12 0
-1 -13 0
-1 -14 0
-2 -3 0
-2 -4 0
-2 -5 0
-2 -6 0
-2 -7 0
-2 -8 0
-2 -9 0
-2 -10 0
-2 -11 0
-2 -12 0
-2 -13 0
-2 -14 0
-3 -4 0
-3 -5 0
-3 -6 0
-3 -7 0
-3 -8 0
-3 -9 0
-3 -10 0
-3 -11 0
-3 -12 0
-3 -13 0
-3 -14 0
-4 -5 0
-4 -6 0
-4 -7 0
-4 -8 0
-4 -9 0
-4 -10 0
-4 -11 0
-4 -12 0
-4 -13 0
-4 -14 0
-5 -6 0
-5 -7 0
-5 -8 0
-5 -9 0
-5 -10 0
-5 -11 0
-5 -12 0
-5 -13 0
-5 -14 0
-6 -7 0
-6 -8 0
-6 -9 0
-6 -10 0
-6 -11 0
-6 -12 0
-6 -13 0
-6 -14 0
-7 -8 0
-7 -9 0
-7 -10 0
-7 -11 0
-7 -12 0
-7 -13 0
-7 -14 0
-8 -9 0
-8 -10 0
-8 -11 0
-8 -12 0
-8 -13 0
-8 -14 0
-9 -10 0
-9 -11 0
-9 -12 0
-9 -13 0
-9 -14 0
-10 -11 0
-10 -12 0
-10 -13 0
-10 -14 0
-11 -12 0
-11 -13 0
-11 -14 0
-12 -13 0
-12 -14 0
-13 -14 0
6837 6838 6839 6840 6841 6842 6843 6844 6845 6846 6847 6848 6849 6850 6851 6852 0
-6837 -6838 0
-6837 -6839 0
-6837 -6840 0
-6837 -6841 0
-6837 -6842 0
-6837 -6843 0
-6837 -6844 0
-6837 -6845 0
-6837 -6846 0
-6837 -6847 0
-6837 -6848 0
-6837 -6849 0
-6837 -6850 0
-6837 -6851 0
-6837 -6852 0
-6838 -6839 0
-6838 -6840 0
-6838 -6841 0
-6838 -6842 0
-6838 -6843 0
-6838 -6844 0
-6838 -6845 0
-6838 -6846 0
-6838 -6847 0
-6838 -6848 0
-6838 -6849 0
-6838 -6850 0
-6838 -6851 0
-6838 -6852 0
-6839 -6840 0
-6839 -6841 0
-6839 -6842 0
-6839 -6843 0
-6839 -6844 0
-6839 -6845 0
-6839 -6846 0
-6839 -6847 0
-6839 -6848 0
-6839 -6849 0
-6839 -6850 0
-6839 -6851 0
-6839 -6852 0
-6840 -6841 0
-6840 -6842 0
-6840 -6843 0
-6840 -6844 0
-6840 -6845 0
-6840 -6846 0
-6840 -6847 0
-6840 -6848 0
-6840 -6849 0
-6840 -6850 0
-6840 -6851 0
-6840 -6852 0
-6841 -6842 0
-6841 -6843 0
-6841 -6844 0
-6841 -6845 0
-6841 -6846 0
-6841 -6847 0
-6841 -6848 0
-6841 -6849 0
-6841 -6850 0
-6841 -6851 0
-6841 -6852 0
-6842 -6843 0
-6842 -6844 0
-6842 -6845 0
-6842 -6846 0
-6842 -6847 0
-6842 -6848 0
-6842 -6849 0
-6842 -6850 0
-6842 -6851 0
-6842 -6852 0
-6843 -6844 0
-6843 -6845 0
-6843 -6846 0
-6843 -6847 0
-6843 -6848 0
-6843 -6849 0
-6843 -6850 0
-6843 -6851 0
-6843 -6852 0
-6844 -6845 0
-6844 -6846 0
-6844 -6847 0
-6844 -6848 0
-6844 -6849 0
-6844 -6850 0
-6844 -6851 0
-6844 -6852 0
-6845 -6846 0
-6845 -6847 0
-6845 -6848 0
-6845 -6849 0
-6845 -6850 0
-6845 -6851 0
-6845 -6852 0
-6846 -6847 0
-6846 -6848 0
-6846 -6849 0
-6846 -6850 0
-6846 -6851 0
-6846 -6852 0
-6847 -6848 0
-6847 -6849 0
-6847 -6850 0
-6847 -6851 0
-6847 -6852 0
-6848 -6849 0
-6848 -6850 0
-6848 -6851 0
-6848 -6852 0
-6849 -6850 0
-6849 -6851 0
-6849 -6852 0
-6850 -6851 0
-6850 -6852 0
-6851 -6852 0
